1659333600
1659362400
1659420000
1659448800
1659506400
1659535200
1659592800
1659621600
1659679200
1659708000
1659938400
1659967200
1660024800
1660053600
1660111200
1660140000
1660197600
1660226400
1660284000
1660312800
1660543200
1660572000
1660629600
1660658400
1660716000
1660744800
1660802400
1660831200
1660888800
1660917600
1661148000
1661176800
1661234400
1661263200
1661320800
1661349600
1661407200
1661436000
1661493600
1661522400
1661752800
1661781600
1661839200
1661868000
1661925600
1661954400
